NAME: tsp10_10
COMMENT: 10-tsp problem (Padberg/Rinaldi)
TYPE: TSP
DIMENSION: 10
EDGE_WEIGHT_TYPE : EUC_2D
NODE_COORD_SECTION
1 31 27
2 17 2
3 40 10
4 8 26
5 13 25
6 14 8
7 18 23
8 3 5
9 39 11
10 27 22
